100 10
500 732
401 717
389 708
192 507
619 800
106 646
486 564
221 389
692 344
405 365
213 339
574 262
424 833
141 624
690 248
619 688
532 444
595 692
408 748
674 680
803 252
552 451
609 583
294 574
859 403
619 166
412 283
305 397
602 464
306 487
195 263
439 866
580 461
458 824
931 553
689 391
936 515
625 499
650 434
333 759
500 675
609 689
629 163
513 491
811 671
543 148
471 474
699 441
422 598
570 881
610 895
400 536
502 813
729 226
876 618
620 556
555 719
419 402
391 394
581 581
359 361
421 537
523 731
429 105
638 390
793 839
253 755
723 401
444 268
748 560
609 744
425 183
625 729
739 89
548 305
525 475
588 696
139 320
572 66
666 777
84 767
296 476
543 615
661 594
668 916
115 389
614 155
440 904
286 770
494 473
661 405
618 549
573 240
546 714
379 289
558 544
475 243
298 407
800 188
754 502
